
Gurobi 11.0.1 (win64) logging started Mon May 13 15:45:14 2024

Set parameter LogFile to value "output/solver_log31.txt"
Gurobi Optimizer version 11.0.1 build v11.0.1rc0 (win64 - Windows 11.0 (22631.2))

CPU model: 11th Gen Intel(R) Core(TM) i7-1165G7 @ 2.80GHz, instruction set [SSE2|AVX|AVX2|AVX512]
Thread count: 4 physical cores, 8 logical processors, using up to 8 threads

Optimize a model with 2670 rows, 623 columns and 49245 nonzeros
Model fingerprint: 0x14c0b899
Variable types: 248 continuous, 375 integer (375 binary)
Coefficient statistics:
  Matrix range     [4e-01, 1e+05]
  Objective range  [1e+00, 1e+02]
  Bounds range     [1e+00, 1e+00]
  RHS range        [1e-02, 1e+05]

User MIP start produced solution with objective 77451 (0.00s)
User MIP start produced solution with objective 77451 (0.01s)
Loaded user MIP start with objective 77451

Presolve removed 257 rows and 235 columns
Presolve time: 0.05s
Presolved: 2413 rows, 388 columns, 46815 nonzeros
Variable types: 227 continuous, 161 integer (158 binary)

Root relaxation: objective 7.793892e+04, 627 iterations, 0.04 seconds (0.08 work units)

    Nodes    |    Current Node    |     Objective Bounds      |     Work
 Expl Unexpl |  Obj  Depth IntInf | Incumbent    BestBd   Gap | It/Node Time

     0     0 77938.9227    0   11 77451.0249 77938.9227  0.63%     -    0s
     0     0 77917.5328    0   22 77451.0249 77917.5328  0.60%     -    0s
     0     0 77917.5287    0    9 77451.0249 77917.5287  0.60%     -    0s
     0     0 77859.7582    0    9 77451.0249 77859.7582  0.53%     -    0s
     0     2 77859.7582    0    9 77451.0249 77859.7582  0.53%     -    0s
*  179   118              24    77616.663951 77856.2923  0.31%  22.6    0s
H  711   241                    77629.833643 77785.4837  0.20%  13.5    0s
*  842   211              13    77744.910927 77770.3085  0.03%  14.8    1s

Cutting planes:
  Inf proof: 1

Explored 1024 nodes (13917 simplex iterations) in 1.08 seconds (2.39 work units)
Thread count was 8 (of 8 available processors)

Solution count 5: 77744.9 77744.9 77629.8 ... 77451

Optimal solution found (tolerance 1.00e-04)
Best objective 7.774491092661e+04, best bound 7.774491092661e+04, gap 0.0000%
